N = 5;
H = 5;
T = 2;

avail = array3d(1..N, 1..H, 1..T, [0, 6, 2, 5, 9, 7, 1, 4, 1, 0, 0, 5, 8, 8, 10, 4, 0, 10, 6, 6, 1, 7, 6, 4, 2, 3, 0, 6, 1, 2, 8, 6, 1, 9, 8, 5, 8, 2, 0, 9, 1, 1, 9, 8, 3, 1, 10, 2, 1, 8]);

r = array2d(1..H, 1..T, [2, 0, 0, 1, 1, 1, 1, 0, 0, 2]);
